param n := 120;
param c := 3000
param : V : p w :=
   0	  51	 373
   1	   1	 267
   2	  36	 360
   3	  44	 432
   4	  34	 279
   5	  70	 289
   6	  69	 462
   7	  44	 263
   8	  24	 275
   9	  60	 480
  10	  73	 254
  11	  10	 266
  12	  29	 488
  13	  87	 252
  14	  73	 260
  15	  83	 484
  16	   2	 255
  17	  78	 261
  18	  75	 414
  19	  53	 265
  20	  77	 321
  21	  76	 464
  22	  52	 266
  23	  45	 270
  24	  69	 370
  25	  42	 280
  26	  17	 350
  27	  91	 452
  28	  19	 272
  29	 100	 276
  30	  52	 446
  31	  17	 269
  32	  38	 285
  33	  19	 447
  34	  15	 267
  35	  23	 286
  36	  41	 430
  37	  79	 256
  38	  64	 314
  39	  59	 465
  40	  93	 263
  41	   1	 272
  42	  43	 473
  43	  29	 259
  44	  35	 268
  45	  44	 409
  46	  86	 288
  47	  81	 303
  48	   4	 499
  49	  13	 250
  50	  11	 251
  51	  71	 483
  52	  93	 252
  53	  33	 265
  54	  51	 384
  55	  97	 283
  56	  31	 333
  57	   3	 484
  58	  81	 251
  59	  59	 265
  60	   9	 481
  61	  15	 257
  62	  58	 262
  63	  75	 401
  64	  11	 298
  65	  37	 301
  66	  82	 396
  67	  97	 289
  68	  36	 315
  69	  70	 382
  70	  25	 250
  71	  95	 368
  72	  29	 410
  73	  27	 256
  74	  33	 334
  75	  40	 497
  76	  71	 250
  77	  94	 253
  78	  86	 359
  79	  35	 317
  80	  23	 324
  81	  14	 424
  82	  91	 251
  83	  22	 325
  84	  22	 357
  85	  55	 306
  86	  46	 337
  87	  61	 396
  88	  40	 254
  89	  98	 350
  90	  69	 469
  91	  46	 258
  92	  71	 273
  93	  30	 391
  94	  46	 274
  95	  87	 335
  96	  26	 426
  97	  22	 278
  98	  56	 296
  99	  36	 434
 100	  99	 268
 101	  55	 298
 102	  37	 491
 103	  28	 251
 104	  58	 258
 105	  33	 460
 106	  35	 261
 107	  62	 279
 108	   6	 403
 109	  98	 289
 110	  23	 308
 111	  21	 436
 112	  25	 266
 113	  22	 298
 114	  70	 350
 115	  40	 322
 116	  89	 328
 117	 100	 419
 118	  58	 269
 119	  92	 312
;

set E :=
   0	   7
   0	  10
   0	  12
   0	  14
   0	  15
   0	  16
   0	  18
   0	  21
   0	  25
   0	  28
   0	  41
   0	  43
   0	  44
   0	  45
   0	  46
   0	  51
   0	  55
   0	  60
   0	  68
   0	  69
   0	  70
   0	  74
   0	  75
   0	  77
   0	  82
   0	  91
   0	  95
   0	  97
   0	  99
   0	 100
   0	 102
   0	 106
   0	 112
   0	 116
   0	 119
   1	  10
   1	  15
   1	  18
   1	  28
   1	  32
   1	  36
   1	  41
   1	  43
   1	  46
   1	  48
   1	  54
   1	  55
   1	  58
   1	  59
   1	  63
   1	  65
   1	  76
   1	  77
   1	  79
   1	  85
   1	  89
   1	  92
   1	  93
   1	  94
   1	  95
   1	 101
   1	 105
   1	 114
   1	 115
   1	 116
   1	 117
   2	   3
   2	   8
   2	  10
   2	  13
   2	  16
   2	  18
   2	  20
   2	  24
   2	  26
   2	  32
   2	  33
   2	  35
   2	  36
   2	  38
   2	  43
   2	  45
   2	  46
   2	  56
   2	  59
   2	  60
   2	  62
   2	  63
   2	  64
   2	  66
   2	  67
   2	  68
   2	  69
   2	  72
   2	  73
   2	  75
   2	  81
   2	  85
   2	  87
   2	  88
   2	  89
   2	  90
   2	  95
   2	  96
   2	  98
   2	 105
   2	 108
   2	 109
   2	 114
   3	   5
   3	  10
   3	  13
   3	  14
   3	  19
   3	  20
   3	  21
   3	  22
   3	  23
   3	  27
   3	  28
   3	  31
   3	  32
   3	  33
   3	  34
   3	  35
   3	  38
   3	  41
   3	  43
   3	  50
   3	  51
   3	  56
   3	  58
   3	  74
   3	  80
   3	  81
   3	  85
   3	  87
   3	  92
   3	  98
   3	  99
   3	 100
   3	 103
   3	 107
   3	 111
   3	 112
   3	 113
   3	 118
   4	  13
   4	  24
   4	  26
   4	  32
   4	  36
   4	  38
   4	  43
   4	  44
   4	  46
   4	  49
   4	  50
   4	  55
   4	  56
   4	  64
   4	  66
   4	  67
   4	  72
   4	  76
   4	  89
   4	  91
   4	  92
   4	  95
   4	  97
   4	 101
   4	 103
   4	 104
   4	 107
   4	 108
   4	 111
   4	 115
   4	 117
   4	 118
   5	   8
   5	   9
   5	  12
   5	  14
   5	  26
   5	  28
   5	  29
   5	  30
   5	  32
   5	  33
   5	  36
   5	  39
   5	  46
   5	  54
   5	  57
   5	  61
   5	  64
   5	  69
   5	  79
   5	  81
   5	  86
   5	  88
   5	  89
   5	  91
   5	  92
   5	  97
   5	  99
   5	 101
   5	 102
   5	 110
   5	 113
   5	 114
   5	 116
   5	 118
   5	 119
   6	  11
   6	  13
   6	  17
   6	  31
   6	  34
   6	  37
   6	  38
   6	  41
   6	  46
   6	  48
   6	  50
   6	  57
   6	  62
   6	  71
   6	  78
   6	  80
   6	  82
   6	  84
   6	  87
   6	  90
   6	  93
   6	  97
   6	 103
   6	 105
   6	 112
   6	 114
   6	 118
   7	  10
   7	  14
   7	  15
   7	  23
   7	  25
   7	  31
   7	  32
   7	  33
   7	  36
   7	  46
   7	  47
   7	  50
   7	  52
   7	  53
   7	  54
   7	  55
   7	  57
   7	  58
   7	  59
   7	  63
   7	  64
   7	  65
   7	  68
   7	  71
   7	  73
   7	  76
   7	  92
   7	  94
   7	  97
   7	 102
   7	 107
   7	 110
   7	 119
   8	  15
   8	  20
   8	  21
   8	  22
   8	  43
   8	  45
   8	  47
   8	  48
   8	  53
   8	  61
   8	  62
   8	  67
   8	  68
   8	  69
   8	  71
   8	  72
   8	  76
   8	  80
   8	  86
   8	  88
   8	  90
   8	  91
   8	  93
   8	  95
   8	  99
   8	 105
   8	 107
   8	 111
   8	 116
   9	  14
   9	  18
   9	  25
   9	  27
   9	  28
   9	  29
   9	  32
   9	  38
   9	  39
   9	  40
   9	  44
   9	  45
   9	  47
   9	  49
   9	  55
   9	  56
   9	  58
   9	  63
   9	  65
   9	  67
   9	  69
   9	  70
   9	  71
   9	  72
   9	  75
   9	  76
   9	  83
   9	  84
   9	  92
   9	  93
   9	  94
   9	  96
   9	 100
   9	 109
   9	 110
   9	 114
   9	 115
   9	 117
  10	  15
  10	  22
  10	  23
  10	  24
  10	  27
  10	  30
  10	  33
  10	  38
  10	  40
  10	  41
  10	  42
  10	  47
  10	  53
  10	  54
  10	  55
  10	  57
  10	  63
  10	  64
  10	  65
  10	  66
  10	  69
  10	  71
  10	  72
  10	  74
  10	  75
  10	  76
  10	  81
  10	  85
  10	  90
  10	  92
  10	  94
  10	 100
  10	 102
  10	 104
  10	 112
  10	 113
  10	 116
  11	  12
  11	  13
  11	  18
  11	  20
  11	  23
  11	  27
  11	  30
  11	  32
  11	  36
  11	  40
  11	  42
  11	  47
  11	  56
  11	  61
  11	  63
  11	  73
  11	  74
  11	  76
  11	  81
  11	  89
  11	  90
  11	  95
  11	  98
  11	 101
  11	 107
  11	 109
  11	 110
  11	 116
  11	 117
  12	  15
  12	  18
  12	  19
  12	  23
  12	  24
  12	  26
  12	  28
  12	  30
  12	  32
  12	  35
  12	  43
  12	  45
  12	  46
  12	  56
  12	  57
  12	  58
  12	  63
  12	  64
  12	  66
  12	  72
  12	  75
  12	  77
  12	  81
  12	  84
  12	  89
  12	  90
  12	  93
  12	  95
  12	 111
  12	 116
  12	 118
  12	 119
  13	  14
  13	  16
  13	  17
  13	  30
  13	  33
  13	  34
  13	  37
  13	  38
  13	  39
  13	  47
  13	  50
  13	  52
  13	  58
  13	  73
  13	  78
  13	  79
  13	  83
  13	  84
  13	  87
  13	  88
  13	  89
  13	  90
  13	  91
  13	  95
  13	  96
  13	 101
  13	 102
  13	 104
  13	 108
  13	 110
  13	 113
  13	 116
  14	  15
  14	  18
  14	  26
  14	  28
  14	  35
  14	  40
  14	  41
  14	  42
  14	  43
  14	  45
  14	  48
  14	  49
  14	  50
  14	  55
  14	  57
  14	  58
  14	  59
  14	  60
  14	  61
  14	  64
  14	  69
  14	  70
  14	  74
  14	  80
  14	  88
  14	  94
  14	  95
  14	  96
  14	  97
  14	  98
  14	 104
  14	 108
  14	 109
  14	 111
  14	 113
  14	 116
  14	 119
  15	  25
  15	  26
  15	  30
  15	  31
  15	  32
  15	  35
  15	  39
  15	  40
  15	  41
  15	  42
  15	  46
  15	  47
  15	  50
  15	  55
  15	  56
  15	  58
  15	  60
  15	  62
  15	  69
  15	  71
  15	  72
  15	  77
  15	  79
  15	  80
  15	  83
  15	  84
  15	  86
  15	  90
  15	  91
  15	  94
  15	 100
  15	 102
  15	 103
  15	 108
  15	 109
  15	 110
  15	 113
  16	  17
  16	  20
  16	  21
  16	  23
  16	  32
  16	  35
  16	  36
  16	  40
  16	  43
  16	  45
  16	  47
  16	  51
  16	  53
  16	  57
  16	  60
  16	  65
  16	  72
  16	  74
  16	  79
  16	  80
  16	  83
  16	  86
  16	  89
  16	 101
  16	 104
  16	 107
  16	 115
  16	 116
  17	  18
  17	  20
  17	  27
  17	  31
  17	  32
  17	  33
  17	  35
  17	  36
  17	  43
  17	  58
  17	  61
  17	  64
  17	  65
  17	  72
  17	  76
  17	  78
  17	  82
  17	  84
  17	  88
  17	  89
  17	  90
  17	  92
  17	 107
  17	 109
  17	 110
  17	 115
  18	  21
  18	  25
  18	  26
  18	  29
  18	  32
  18	  38
  18	  39
  18	  40
  18	  41
  18	  48
  18	  49
  18	  51
  18	  56
  18	  60
  18	  63
  18	  66
  18	  70
  18	  71
  18	  76
  18	  79
  18	  82
  18	  89
  18	  95
  18	  96
  18	  97
  18	 106
  18	 108
  18	 113
  18	 114
  18	 115
  18	 117
  18	 118
  19	  33
  19	  41
  19	  42
  19	  44
  19	  45
  19	  46
  19	  47
  19	  49
  19	  50
  19	  52
  19	  54
  19	  63
  19	  64
  19	  65
  19	  76
  19	  77
  19	  78
  19	  80
  19	  83
  19	  87
  19	  90
  19	  94
  19	  97
  19	  98
  19	 100
  19	 103
  19	 104
  19	 108
  19	 111
  19	 112
  19	 114
  19	 115
  19	 117
  20	  29
  20	  45
  20	  46
  20	  49
  20	  56
  20	  58
  20	  60
  20	  63
  20	  68
  20	  69
  20	  81
  20	  84
  20	  85
  20	  87
  20	  88
  20	  89
  20	  91
  20	  94
  20	  97
  20	  99
  20	 106
  20	 108
  20	 110
  20	 119
  21	  27
  21	  37
  21	  39
  21	  41
  21	  53
  21	  54
  21	  55
  21	  59
  21	  63
  21	  64
  21	  70
  21	  73
  21	  77
  21	  78
  21	  82
  21	  91
  21	  93
  21	  99
  21	 102
  21	 104
  21	 105
  21	 109
  21	 117
  22	  24
  22	  29
  22	  31
  22	  33
  22	  36
  22	  40
  22	  44
  22	  47
  22	  52
  22	  53
  22	  56
  22	  61
  22	  62
  22	  65
  22	  73
  22	  80
  22	  83
  22	  87
  22	  91
  22	  92
  22	  99
  22	 100
  22	 101
  22	 102
  22	 113
  22	 115
  22	 118
  23	  36
  23	  37
  23	  40
  23	  41
  23	  42
  23	  46
  23	  48
  23	  49
  23	  52
  23	  55
  23	  57
  23	  58
  23	  61
  23	  67
  23	  71
  23	  72
  23	  78
  23	  81
  23	  82
  23	  83
  23	  86
  23	  88
  23	  89
  23	  90
  23	  96
  23	  99
  23	 101
  23	 102
  23	 106
  23	 109
  23	 113
  23	 117
  24	  26
  24	  28
  24	  29
  24	  34
  24	  42
  24	  46
  24	  47
  24	  51
  24	  52
  24	  53
  24	  58
  24	  59
  24	  64
  24	  71
  24	  76
  24	  80
  24	  88
  24	  90
  24	  94
  24	  95
  24	  96
  24	 101
  24	 104
  24	 108
  25	  29
  25	  34
  25	  35
  25	  42
  25	  46
  25	  56
  25	  58
  25	  61
  25	  63
  25	  70
  25	  73
  25	  78
  25	  79
  25	  80
  25	  81
  25	  87
  25	  88
  25	  90
  25	  91
  25	 102
  25	 103
  25	 104
  25	 118
  26	  28
  26	  29
  26	  30
  26	  37
  26	  39
  26	  40
  26	  41
  26	  42
  26	  43
  26	  47
  26	  49
  26	  51
  26	  56
  26	  61
  26	  62
  26	  69
  26	  70
  26	  72
  26	  73
  26	  85
  26	  86
  26	  95
  26	  97
  26	  98
  26	 104
  26	 107
  26	 112
  26	 116
  27	  33
  27	  34
  27	  38
  27	  39
  27	  43
  27	  45
  27	  46
  27	  49
  27	  50
  27	  51
  27	  52
  27	  54
  27	  58
  27	  60
  27	  62
  27	  64
  27	  66
  27	  67
  27	  69
  27	  70
  27	  75
  27	  77
  27	  80
  27	  82
  27	  83
  27	  87
  27	  88
  27	  91
  27	  93
  27	  97
  27	  98
  27	  99
  27	 100
  27	 108
  27	 109
  27	 110
  27	 115
  27	 116
  27	 117
  27	 118
  28	  29
  28	  32
  28	  36
  28	  40
  28	  43
  28	  47
  28	  48
  28	  50
  28	  52
  28	  55
  28	  58
  28	  66
  28	  73
  28	  78
  28	  83
  28	  86
  28	  88
  28	  90
  28	  96
  28	  99
  28	 101
  28	 102
  28	 104
  28	 107
  28	 109
  28	 110
  28	 111
  28	 116
  28	 119
  29	  30
  29	  31
  29	  38
  29	  40
  29	  41
  29	  50
  29	  54
  29	  56
  29	  63
  29	  65
  29	  67
  29	  68
  29	  75
  29	  76
  29	  81
  29	  83
  29	  84
  29	  86
  29	  87
  29	  90
  29	  91
  29	  94
  29	  97
  29	  99
  29	 105
  29	 106
  29	 109
  29	 112
  29	 113
  30	  31
  30	  32
  30	  33
  30	  37
  30	  39
  30	  40
  30	  41
  30	  42
  30	  46
  30	  51
  30	  53
  30	  59
  30	  62
  30	  63
  30	  64
  30	  65
  30	  70
  30	  75
  30	  79
  30	  83
  30	  86
  30	 101
  30	 104
  30	 108
  30	 111
  30	 112
  30	 113
  30	 114
  30	 119
  31	  32
  31	  34
  31	  37
  31	  39
  31	  40
  31	  43
  31	  44
  31	  45
  31	  47
  31	  50
  31	  55
  31	  56
  31	  58
  31	  64
  31	  65
  31	  67
  31	  71
  31	  74
  31	  76
  31	  77
  31	  80
  31	  84
  31	  85
  31	  89
  31	  92
  31	  95
  31	  96
  31	  98
  31	 100
  31	 105
  31	 108
  31	 111
  31	 113
  31	 115
  31	 116
  31	 117
  32	  35
  32	  37
  32	  38
  32	  39
  32	  41
  32	  42
  32	  43
  32	  44
  32	  46
  32	  59
  32	  67
  32	  71
  32	  74
  32	  78
  32	  83
  32	  85
  32	  98
  32	  99
  32	 102
  32	 109
  32	 110
  32	 111
  32	 114
  32	 116
  32	 119
  33	  38
  33	  44
  33	  48
  33	  54
  33	  56
  33	  59
  33	  60
  33	  66
  33	  71
  33	  72
  33	  74
  33	  83
  33	  90
  33	  93
  33	  98
  33	 102
  33	 109
  33	 111
  33	 115
  34	  36
  34	  38
  34	  42
  34	  44
  34	  47
  34	  50
  34	  51
  34	  54
  34	  56
  34	  58
  34	  62
  34	  66
  34	  73
  34	  76
  34	  77
  34	  78
  34	  81
  34	  87
  34	  88
  34	  89
  34	  90
  34	 100
  34	 107
  34	 109
  34	 111
  34	 114
  34	 115
  34	 118
  35	  36
  35	  39
  35	  42
  35	  44
  35	  45
  35	  50
  35	  56
  35	  57
  35	  63
  35	  67
  35	  70
  35	  77
  35	  82
  35	  83
  35	  85
  35	  88
  35	  89
  35	  91
  35	  92
  35	  96
  35	  98
  35	  99
  35	 102
  35	 107
  35	 114
  35	 116
  35	 118
  36	  42
  36	  44
  36	  47
  36	  49
  36	  52
  36	  53
  36	  56
  36	  58
  36	  60
  36	  64
  36	  65
  36	  67
  36	  78
  36	  91
  36	  92
  36	 101
  36	 106
  36	 108
  36	 111
  36	 112
  36	 117
  37	  39
  37	  45
  37	  46
  37	  48
  37	  49
  37	  50
  37	  51
  37	  53
  37	  60
  37	  61
  37	  65
  37	  71
  37	  73
  37	  74
  37	  77
  37	  79
  37	  81
  37	  85
  37	  91
  37	  92
  37	  98
  37	  99
  37	 116
  37	 117
  37	 118
  38	  44
  38	  45
  38	  46
  38	  50
  38	  53
  38	  56
  38	  57
  38	  59
  38	  60
  38	  63
  38	  64
  38	  65
  38	  66
  38	  67
  38	  71
  38	  73
  38	  75
  38	  78
  38	  80
  38	  87
  38	  90
  38	  95
  38	  99
  38	 101
  38	 103
  38	 105
  38	 106
  38	 113
  38	 116
  38	 119
  39	  40
  39	  42
  39	  43
  39	  47
  39	  49
  39	  57
  39	  63
  39	  70
  39	  72
  39	  81
  39	  86
  39	  88
  39	  90
  39	  93
  39	 103
  39	 110
  39	 118
  40	  41
  40	  49
  40	  50
  40	  57
  40	  61
  40	  62
  40	  63
  40	  67
  40	  71
  40	  76
  40	  86
  40	  88
  40	  92
  40	  95
  40	  98
  40	 100
  40	 102
  40	 104
  40	 110
  40	 112
  40	 114
  40	 115
  40	 117
  41	  44
  41	  50
  41	  53
  41	  55
  41	  59
  41	  62
  41	  63
  41	  64
  41	  65
  41	  78
  41	  81
  41	  82
  41	  85
  41	  91
  41	  99
  41	 100
  41	 105
  41	 106
  41	 112
  41	 119
  42	  47
  42	  50
  42	  52
  42	  55
  42	  61
  42	  65
  42	  66
  42	  71
  42	  72
  42	  74
  42	  77
  42	  81
  42	  87
  42	  90
  42	  91
  42	  95
  42	  99
  42	 101
  42	 102
  42	 104
  42	 109
  42	 111
  43	  45
  43	  46
  43	  56
  43	  58
  43	  59
  43	  62
  43	  65
  43	  67
  43	  71
  43	  73
  43	  75
  43	  79
  43	  82
  43	  87
  43	  88
  43	  93
  43	  97
  43	  99
  43	 101
  43	 108
  43	 112
  43	 113
  43	 115
  44	  45
  44	  47
  44	  52
  44	  55
  44	  56
  44	  62
  44	  63
  44	  66
  44	  68
  44	  73
  44	  78
  44	  82
  44	  83
  44	  86
  44	  87
  44	  90
  44	  91
  44	  96
  44	  97
  44	  98
  44	  99
  44	 102
  44	 103
  44	 107
  44	 114
  44	 116
  45	  46
  45	  47
  45	  48
  45	  52
  45	  56
  45	  58
  45	  59
  45	  60
  45	  61
  45	  63
  45	  64
  45	  68
  45	  71
  45	  80
  45	  81
  45	  85
  45	  86
  45	  87
  45	  89
  45	  90
  45	  93
  45	  95
  45	  99
  45	 100
  45	 105
  45	 108
  45	 111
  45	 118
  45	 119
  46	  52
  46	  53
  46	  56
  46	  57
  46	  58
  46	  63
  46	  64
  46	  70
  46	  73
  46	  74
  46	  75
  46	  78
  46	  80
  46	  82
  46	  83
  46	  86
  46	 105
  46	 109
  46	 112
  46	 116
  47	  49
  47	  51
  47	  59
  47	  60
  47	  62
  47	  68
  47	  71
  47	  81
  47	  88
  47	 102
  47	 104
  47	 107
  47	 112
  47	 116
  47	 118
  48	  51
  48	  54
  48	  55
  48	  58
  48	  62
  48	  66
  48	  69
  48	  71
  48	  74
  48	  79
  48	  80
  48	  88
  48	  91
  48	 102
  48	 106
  48	 108
  48	 113
  48	 114
  48	 117
  48	 118
  49	  51
  49	  52
  49	  53
  49	  56
  49	  59
  49	  61
  49	  62
  49	  68
  49	  69
  49	  72
  49	  81
  49	  84
  49	  88
  49	  94
  49	  96
  49	  97
  49	 104
  49	 109
  49	 111
  49	 113
  49	 117
  50	  51
  50	  62
  50	  64
  50	  66
  50	  70
  50	  71
  50	  78
  50	  88
  50	  93
  50	  94
  50	 104
  50	 107
  50	 112
  50	 113
  50	 114
  50	 115
  51	  53
  51	  56
  51	  64
  51	  65
  51	  66
  51	  68
  51	  70
  51	  71
  51	  72
  51	  80
  51	  84
  51	  85
  51	  88
  51	  91
  51	 101
  51	 102
  51	 112
  51	 114
  51	 115
  51	 117
  51	 118
  52	  54
  52	  55
  52	  58
  52	  62
  52	  65
  52	  71
  52	  74
  52	  79
  52	  80
  52	  84
  52	  97
  52	  98
  52	  99
  52	 100
  52	 101
  52	 102
  52	 103
  52	 104
  52	 105
  52	 114
  52	 115
  52	 117
  53	  55
  53	  56
  53	  58
  53	  60
  53	  61
  53	  62
  53	  69
  53	  72
  53	  75
  53	  77
  53	  83
  53	  87
  53	  88
  53	  92
  53	  95
  53	  96
  53	  98
  53	 102
  53	 106
  53	 107
  53	 110
  54	  55
  54	  60
  54	  62
  54	  70
  54	  75
  54	  76
  54	  79
  54	  82
  54	  85
  54	  89
  54	  90
  54	  91
  54	  92
  54	  93
  54	  94
  54	  97
  54	  98
  54	 102
  54	 103
  54	 105
  54	 106
  54	 111
  54	 115
  54	 116
  54	 117
  54	 118
  55	  59
  55	  64
  55	  65
  55	  69
  55	  71
  55	  73
  55	  76
  55	  79
  55	  81
  55	  83
  55	  85
  55	  87
  55	  90
  55	  92
  55	  96
  55	 102
  55	 104
  55	 106
  55	 108
  55	 109
  55	 112
  55	 113
  55	 114
  55	 117
  55	 118
  56	  58
  56	  60
  56	  63
  56	  65
  56	  75
  56	  76
  56	  80
  56	  84
  56	  86
  56	  95
  56	  99
  56	 106
  56	 108
  56	 114
  56	 115
  56	 118
  57	  59
  57	  63
  57	  64
  57	  67
  57	  72
  57	  74
  57	  75
  57	  85
  57	  89
  57	  93
  57	  96
  57	 100
  57	 105
  57	 110
  57	 113
  57	 117
  57	 119
  58	  60
  58	  62
  58	  63
  58	  65
  58	  66
  58	  71
  58	  81
  58	  84
  58	  85
  58	  86
  58	  87
  58	  91
  58	  95
  58	  96
  58	  97
  58	 101
  58	 104
  58	 107
  58	 117
  58	 118
  59	  70
  59	  71
  59	  73
  59	  77
  59	  81
  59	  82
  59	  83
  59	  84
  59	  89
  59	  90
  59	  94
  59	  95
  59	  97
  59	  98
  59	 107
  59	 111
  59	 115
  59	 117
  60	  62
  60	  64
  60	  68
  60	  80
  60	  81
  60	  83
  60	  84
  60	  86
  60	  91
  60	  93
  60	  98
  60	  99
  60	 101
  60	 102
  60	 103
  60	 106
  60	 107
  60	 108
  60	 109
  60	 114
  60	 116
  60	 118
  60	 119
  61	  62
  61	  68
  61	  69
  61	  73
  61	  79
  61	  81
  61	  86
  61	  89
  61	  95
  61	 109
  61	 111
  61	 112
  61	 114
  61	 116
  62	  67
  62	  74
  62	  76
  62	  80
  62	  81
  62	  82
  62	  87
  62	  90
  62	  92
  62	  93
  62	  94
  62	  95
  62	 102
  62	 108
  62	 109
  62	 112
  62	 115
  62	 119
  63	  67
  63	  70
  63	  73
  63	  80
  63	  81
  63	  89
  63	  91
  63	  92
  63	  96
  63	  99
  63	 102
  63	 112
  63	 115
  63	 118
  64	  65
  64	  75
  64	  76
  64	  80
  64	  81
  64	  83
  64	  87
  64	  90
  64	  91
  64	  98
  64	  99
  64	 104
  64	 105
  64	 106
  64	 107
  64	 116
  64	 117
  64	 119
  65	  66
  65	  70
  65	  74
  65	  83
  65	  88
  65	  93
  65	  96
  65	  99
  65	 105
  65	 106
  65	 107
  65	 116
  66	  73
  66	  78
  66	  79
  66	  81
  66	  82
  66	  88
  66	  90
  66	  91
  66	  94
  66	  95
  66	  96
  66	  97
  66	 100
  66	 104
  67	  70
  67	  74
  67	  83
  67	  84
  67	  85
  67	  87
  67	  88
  67	  91
  67	  95
  67	 100
  67	 101
  67	 104
  67	 106
  67	 109
  67	 110
  67	 111
  67	 115
  67	 118
  68	  73
  68	  76
  68	  77
  68	  78
  68	  82
  68	  83
  68	  86
  68	  88
  68	  95
  68	  98
  68	 101
  68	 110
  68	 111
  68	 112
  68	 113
  68	 114
  68	 119
  69	  73
  69	  74
  69	  80
  69	  85
  69	  87
  69	  89
  69	  92
  69	 104
  69	 110
  69	 116
  69	 118
  70	  72
  70	  74
  70	  76
  70	  77
  70	  80
  70	  83
  70	  84
  70	  88
  70	  91
  70	  92
  70	  99
  70	 107
  70	 118
  71	  76
  71	  81
  71	  82
  71	  85
  71	  93
  71	  97
  71	  99
  71	 101
  71	 109
  71	 114
  72	  74
  72	  76
  72	  78
  72	  82
  72	  88
  72	  90
  72	  92
  72	  93
  72	  96
  72	 101
  72	 104
  72	 108
  72	 113
  72	 114
  72	 119
  73	  79
  73	  82
  73	  85
  73	  88
  73	  89
  73	  94
  73	  96
  73	  97
  73	 106
  73	 111
  73	 113
  73	 118
  74	  75
  74	  81
  74	  84
  74	  85
  74	  86
  74	  87
  74	  88
  74	 100
  74	 106
  74	 108
  74	 113
  74	 115
  74	 116
  75	  79
  75	  80
  75	  82
  75	  84
  75	  87
  75	  90
  75	  92
  75	  94
  75	  95
  75	  99
  75	 107
  75	 114
  75	 117
  76	  79
  76	  81
  76	  82
  76	  83
  76	  86
  76	  93
  76	  95
  76	  97
  76	  98
  76	  99
  76	 103
  76	 104
  76	 107
  76	 108
  76	 109
  76	 114
  76	 115
  76	 116
  76	 118
  77	  80
  77	  82
  77	  83
  77	  96
  77	  97
  77	 101
  77	 102
  77	 103
  77	 104
  77	 116
  77	 119
  78	  80
  78	  81
  78	  83
  78	  84
  78	  86
  78	  88
  78	  91
  78	  94
  78	  96
  78	 100
  78	 101
  78	 102
  78	 106
  78	 108
  78	 112
  78	 116
  78	 117
  78	 118
  78	 119
  79	  83
  79	  87
  79	  88
  79	  91
  79	  93
  79	 102
  79	 103
  79	 104
  79	 105
  79	 106
  79	 111
  79	 112
  79	 115
  79	 117
  79	 119
  80	  87
  80	  90
  80	  91
  80	  92
  80	  93
  80	  95
  80	 103
  80	 108
  80	 119
  81	  82
  81	  86
  81	  90
  81	  95
  81	  96
  81	  98
  81	  99
  81	 101
  81	 103
  81	 106
  81	 110
  81	 114
  81	 115
  82	  84
  82	  85
  82	  87
  82	  91
  82	  94
  82	  99
  82	 101
  82	 106
  82	 109
  82	 111
  82	 112
  82	 115
  82	 117
  83	  86
  83	  88
  83	  89
  83	  90
  83	  91
  83	  93
  83	  94
  83	  98
  83	  99
  83	 103
  83	 111
  83	 119
  84	  91
  84	  92
  84	 107
  84	 110
  84	 111
  84	 114
  84	 115
  84	 117
  85	  87
  85	  91
  85	  94
  85	  95
  85	  97
  85	 102
  85	 106
  85	 107
  85	 110
  85	 114
  85	 115
  85	 116
  85	 118
  86	  88
  86	  97
  86	  99
  86	 109
  86	 110
  86	 111
  86	 118
  86	 119
  87	  88
  87	  90
  87	  93
  87	  94
  87	  98
  87	 102
  87	 105
  87	 106
  87	 109
  87	 113
  87	 118
  87	 119
  88	  89
  88	  94
  88	  97
  88	  99
  88	 103
  88	 105
  88	 106
  88	 108
  88	 109
  88	 111
  88	 112
  88	 113
  88	 118
  89	  97
  89	  98
  89	  99
  89	 103
  89	 104
  89	 108
  89	 109
  89	 118
  89	 119
  90	  94
  90	  99
  90	 101
  90	 103
  90	 112
  90	 114
  90	 116
  90	 119
  91	  92
  91	  96
  91	  98
  91	 100
  91	 103
  91	 110
  91	 111
  91	 114
  91	 116
  91	 119
  92	  94
  92	  98
  92	 102
  92	 107
  92	 111
  92	 115
  92	 118
  92	 119
  93	  96
  93	  97
  93	 101
  93	 103
  93	 109
  93	 116
  93	 117
  94	 113
  94	 116
  95	  96
  95	  97
  95	 103
  95	 105
  95	 111
  95	 114
  95	 115
  95	 117
  95	 118
  96	 102
  96	 106
  96	 107
  96	 113
  96	 114
  96	 116
  96	 117
  97	  98
  97	 101
  97	 104
  97	 105
  97	 108
  97	 116
  98	  99
  98	 101
  98	 102
  98	 105
  98	 107
  98	 108
  98	 113
  98	 114
  98	 116
  99	 100
  99	 102
  99	 112
  99	 113
  99	 116
  99	 118
 100	 104
 100	 116
 100	 117
 101	 102
 101	 107
 101	 114
 101	 115
 101	 117
 102	 103
 102	 104
 102	 106
 102	 117
 103	 113
 103	 116
 103	 117
 103	 119
 104	 105
 104	 107
 104	 113
 104	 114
 105	 106
 105	 113
 105	 117
 105	 118
 105	 119
 106	 108
 106	 117
 106	 118
 106	 119
 107	 108
 107	 110
 107	 112
 107	 113
 107	 115
 108	 111
 108	 112
 108	 113
 108	 115
 108	 116
 108	 119
 109	 111
 109	 113
 109	 116
 109	 117
 109	 119
 110	 112
 110	 115
 110	 119
 111	 112
 112	 113
 112	 114
 112	 115
 112	 116
 112	 117
 113	 115
 113	 117
 116	 119
 117	 119
;
